c status 111 1469274862238
c status 71 1469274862242
c status 58 1469274862303
c status 55 1469274862339
c status 52 1469274862376
c status 51 1469274866006
s td 514 51 800
b 1 668 790 58 80 113 1 2
b 2 790 14 58 80 113 1 2
b 3 14 58 80 113 1 2 202 69
b 4 158 236 502 58 347 80
b 5 236 502 58 347 80 391 202
b 6 502 58 347 80 680 786 391 202
b 7 58 347 80 113 1 2 680 786 391 202 69
b 8 125 136 147 113 557 269
b 9 136 147 113 102 557 258 269
b 10 225 424 291 147 347 80
b 11 469 546 424 291 713
b 12 546 424 291 757 780 713
b 13 424 291 147 347 80 757 780 713
b 14 291 147 347 80 269 580 757 780 713
b 15 147 347 80 113 102 557 258 269 580 757 780 713
b 16 347 80 113 102 557 1 2 258 269 580 757 780 713 680 786 391 202 69
b 17 247 191 358 458 258
b 18 191 213 47 91 102 358 458 258
b 19 213 47 91 180 102 402 358 458 258
b 20 224 335 779 91 114 1 2 446 3
b 21 335 779 47 91 114 557 1 2 446 3
b 22 47 91 114 180 102 557 1 2 402 358 458 258 446 3
b 23 413 558 613 435 114 180 646 402
b 24 558 613 435 602 114 180 783 646 402
b 25 635 691 782 435 602 491
b 26 691 782 435 602 783 53 491
b 27 782 435 602 783 53 788 491
b 28 435 602 114 180 783 646 402 3 53 788 491
b 29 114 180 102 557 1 2 783 646 402 358 458 258 446 3 53 788 491
b 30 102 557 1 2 783 646 402 358 458 258 269 580 757 780 713 680 786 391 202 69 446 3 53 788 491
b 31 447 524 591 793 258 269
b 32 524 591 793 624 458 258 269
b 33 6 789 792 793 17 76 38 757
b 34 789 792 591 793 17 76 580 38 757
b 35 591 793 624 17 76 458 258 269 580 38 757
b 36 21 18 30 63 798 44
b 37 37 18 30 77 17 76
b 38 18 30 63 77 798 44 624 17 76
b 39 92 105 77 76 167 87 178
b 40 89 106 105 63 84
b 41 106 105 63 84 117 166
b 42 105 63 77 84 76 167 87 117 166 178
b 43 63 77 798 44 84 624 17 76 167 87 117 166 178
b 44 88 70 51 44 84 138 117
b 45 70 62 51 44 84 83 138 117
b 46 62 51 42 44 84 83 138 117
b 47 569 657 798 624 458
b 48 657 791 51 798 624 358 458
b 49 791 51 42 798 624 8 402 358 458
b 50 51 42 798 44 84 624 8 83 402 358 458 138 117
b 51 798 44 84 624 17 76 8 83 402 358 458 167 87 138 117 166 178
b 52 624 17 76 8 83 402 358 458 258 269 580 167 87 38 757 138 117 166 178
b 53 95 86 8 83 123
b 54 4 781 787 50 86 8 646 402
b 55 781 787 50 86 8 783 646 402
b 56 796 787 7 50 783
b 57 787 7 50 86 8 783 646 402
b 58 54 127 73 7 50 783 153 94 53
b 59 127 82 73 7 50 783 153 155 94 53
b 60 71 82 73 50
b 61 82 73 7 50 86 783 153 155 94 53
b 62 7 50 86 8 783 646 402 153 155 94 53
b 63 86 8 83 783 646 402 153 155 123 94 53
b 64 8 83 783 646 402 358 458 258 269 580 167 87 38 757 153 155 123 138 117 166 178 94 53
b 65 783 646 402 358 458 258 269 580 167 87 38 757 780 713 680 153 155 123 138 117 166 178 786 391 202 69 446 3 94 53 788 491
b 66 52 61 55 28
b 67 74 61 78 133 55 135
b 68 61 23 78 133 55 28 135
b 69 23 12 78 19 133 55 28 135
b 70 12 78 19 9 133 55 28 135 780 713
b 71 65 20 26 32 78 19 85 43
b 72 20 26 32 78 19 9 85 43
b 73 29 34 32 43 680 45 799
b 74 32 78 19 9 85 43 680 45 799
b 75 78 19 9 133 55 28 135 121 85 43 780 713 680 45 799
b 76 40 39 800 60 112 55 28
b 77 22 39 800 60 33 757 780
b 78 39 800 60 112 33 55 28 757 780
b 79 129 115 175 112 133 174
b 80 165 115 175 190 107 222
b 81 115 175 60 112 190 107 133 222 174
b 82 175 60 112 190 107 133 222 220 174
b 83 60 112 190 107 33 133 55 28 222 220 174 757 780
b 84 111 118 184 96 107
b 85 118 184 144 96 107
b 86 151 156 188 144 96 167 87
b 87 156 188 184 144 96 167 87 235
b 88 188 184 144 96 167 87 197 235
b 89 204 184 190 222 238
b 90 184 144 96 190 107 222 167 87 197 235 238
b 91 96 190 107 33 222 167 87 38 197 235 238
b 92 190 107 33 133 55 28 222 220 174 167 87 38 757 780 197 235 238
b 93 133 55 28 222 220 174 194 135 121 85 43 167 87 38 757 780 713 680 197 235 238 45 799
b 94 116 119 141 120 148 85 43
b 95 119 141 120 148 134 85 43
b 96 141 120 148 219 143 134 85 43
b 97 214 209 148 248 219 229
b 98 209 154 148 248 219 229
b 99 154 120 148 248 219 229 171 122
b 100 120 148 248 219 143 134 85 43 229 171 122
b 101 146 192 239 143 134 135 121
b 102 242 196 192 239 244 263 274
b 103 196 192 239 244 263 274 174 194
b 104 192 239 143 134 244 263 274 174 194 135 121
b 105 255 240 285 239 219 143 274 293 310
b 106 259 240 285 248 219 264
b 107 240 285 239 248 219 143 274 293 310 264
b 108 285 239 248 219 143 274 293 310 360 264
b 109 239 248 219 143 134 244 263 274 293 310 174 194 135 121 360 264
b 110 248 219 143 134 244 263 274 293 310 174 194 135 121 85 43 360 264 229 171 122
b 111 283 276 294 362 353 244 263 220
b 112 276 294 362 353 244 263 222 220 320
b 113 294 362 353 244 263 222 220 320 367
b 114 361 409 362 353
b 115 409 400 362 353 416 445
b 116 400 377 362 353 388 417 416 445
b 117 377 362 353 388 417 416 263 274 293 445
b 118 362 353 388 417 416 244 263 274 293 222 220 320 367 445
b 119 488 405 421 518 533 470
b 120 405 395 421 518 310 533 470 360
b 121 395 421 518 388 293 310 533 470 360
b 122 474 481 523 421 518 388 417
b 123 481 523 421 518 388 417 416 490 545
b 124 579 523 518 545 603 595
b 125 523 421 518 388 417 416 490 545 603 595
b 126 421 518 388 417 416 293 310 490 545 603 595 533 470 360
b 127 388 417 416 244 263 274 293 310 222 220 320 367 445 490 545 603 595 533 470 360
b 128 244 263 274 293 310 222 220 174 194 135 121 85 43 320 367 445 490 545 603 595 533 470 360 264 229 171 122
b 129 222 220 174 194 135 121 85 43 167 87 38 757 780 713 680 197 235 238 320 367 445 490 545 603 595 533 470 360 264 229 171 122 45 799
b 130 167 87 38 757 780 713 680 153 155 123 138 117 166 178 197 235 238 320 367 445 490 545 603 595 533 470 360 264 229 171 122 45 799 786 391 202 69 446 3 94 53 788 491
b 131 189 210 257 179 166 178
b 132 210 257 216 179 166 178
b 133 277 312 334 308 257 295 216
b 134 312 334 308 257 327 295 216
b 135 334 308 387 257 404 327 295 216
b 136 304 303 308 387 257 376
b 137 303 308 387 257 376 299
b 138 443 387 404 460 522 471
b 139 308 387 257 404 327 295 216 376 299
b 140 387 257 404 327 295 216 460 522 471 376 299
b 141 257 404 327 295 216 179 460 522 471 376 299 166 178 197
b 142 161 251 250 179 186 138 117
b 143 251 250 288 295 216 179 186 138 117
b 144 250 288 295 216 179 266 186 138 117
b 145 306 339 288 404 327 295
b 146 332 331 346 344 301 266
b 147 357 331 346 339 389 411
b 148 331 346 339 288 344 301 266 389 411
b 149 339 288 404 327 295 344 301 266 389 411
b 150 288 404 327 295 216 179 344 301 266 186 389 411 138 117
b 151 404 327 295 216 179 344 301 266 186 389 411 460 522 471 376 299 138 117 166 178 197
b 152 193 198 211 164 186 123 138
b 153 198 211 164 227 268 186 123 138
b 154 211 164 227 268 301 266 186 123 138
b 155 200 164 227 270 237 153 155
b 156 164 227 268 270 237 301 266 186 153 155 123 138
b 157 289 278 393 227 268 344 301
b 158 359 401 278 393 349 342
b 159 401 278 393 349 342 468 505 497
b 160 278 393 227 268 349 342 270 344 301 468 505 497
b 161 393 227 268 349 342 270 344 301 468 434 505 497
b 162 227 268 349 342 270 237 344 301 266 186 468 434 153 155 123 138 505 497
b 163 185 195 237 153 201 94
b 164 195 243 237 153 201 94
b 165 253 292 243 267 201
b 166 271 281 333 243 270 237
b 167 329 281 333 292 349 351 325
b 168 281 333 292 243 349 270 237 351 325
b 169 333 292 243 349 342 270 237 351 325
b 170 292 243 349 342 270 237 351 325 267 201
b 171 243 349 342 270 237 153 351 325 267 201 94
b 172 349 342 270 237 344 301 266 186 468 434 153 155 123 138 505 497 351 325 267 201 94
b 173 344 301 266 186 468 434 389 411 460 522 471 376 299 153 155 123 138 117 166 178 197 505 497 351 325 267 201 94
b 174 508 482 510 473 541 589
b 175 472 482 510 411 460 526
b 176 482 510 473 541 589 389 411 460 526
b 177 510 473 541 589 389 411 460 611 526
b 178 504 487 527 468 573 505
b 179 487 467 527 496 468 573 505
b 180 467 527 496 456 468 434 573 505
b 181 507 514 496 456 473
b 182 514 554 527 496 456 473 541
b 183 554 527 496 456 473 541 571 615
b 184 527 496 456 473 541 571 615 468 434 573 505
b 185 456 473 541 571 615 468 434 389 573 505
b 186 473 541 571 615 589 468 434 389 411 460 611 526 573 505
b 187 630 623 641 639 571 615
b 188 623 607 641 639 571 615 656 610
b 189 607 641 639 571 615 656 610 573
b 190 670 672 641 639 658 698 656
b 191 672 641 639 658 682 698 656
b 192 641 639 658 571 615 682 698 656 610 573
b 193 642 649 658 615 589 662 611
b 194 658 571 615 589 682 662 611 698 656 610 573
b 195 571 615 589 468 434 389 411 460 682 662 611 526 698 656 610 573 505
b 196 468 434 389 411 460 682 662 611 526 522 471 376 299 153 155 123 138 117 166 178 197 698 656 610 573 505 497 351 325 267 201 94
b 197 322 350 337 376 299 235
b 198 350 337 390 408 376 299 235
b 199 282 378 337 383 235 238 320
b 200 378 337 390 430 459 383 235 238 320
b 201 337 390 408 430 459 383 376 299 235 238 320
b 202 444 449 484 408 471 376
b 203 449 484 512 408 430 459 471 376
b 204 484 512 408 430 459 563 552 471 376
b 205 543 559 564 512 519 459 588 563
b 206 559 564 512 519 459 583 588 563
b 207 564 512 519 459 583 594 588 563
b 208 512 408 430 519 459 583 594 588 563 552 471 376
b 209 408 430 519 459 383 583 594 588 563 552 471 376 299 235 238 320
b 210 385 392 397 383 320 367
b 211 392 428 397 383 320 367
b 212 406 453 457 428 397 383
b 213 453 457 428 397 511 459 383
b 214 457 428 397 511 478 459 383
b 215 428 397 511 478 459 383 320 367 445
b 216 534 538 511 478 519 583
b 217 538 498 511 478 519 553 605 583
b 218 498 489 511 478 519 553 605 583 490
b 219 489 511 478 519 553 605 583 445 490
b 220 511 478 519 459 383 553 605 583 320 367 445 490
b 221 519 459 383 553 605 583 594 588 563 552 471 376 299 235 238 320 367 445 490
b 222 578 612 629 631 552 611 526 522
b 223 612 629 631 622 552 611 526 522
b 224 640 629 631 655 684
b 225 629 631 655 684 622 552 611 526 522
b 226 587 631 599 563 552
b 227 631 655 684 622 599 563 552 611 526 522
b 228 665 697 655 684 664
b 229 697 721 730 655 684 664 700
b 230 721 738 730 655 684 664 700 747
b 231 738 743 730 655 684 664 700 747
b 232 743 730 655 684 664 700 747 772 756
b 233 679 730 684 622 682 662
b 234 730 655 684 622 664 700 747 682 662 772 756
b 235 655 684 622 599 664 700 747 563 552 682 662 611 526 522 772 756
b 236 601 645 637 638 583 594
b 237 645 637 638 654 643 675 583 594
b 238 659 638 654 664 700
b 239 638 654 643 675 599 664 700 583 594 588
b 240 634 614 644 626 553
b 241 614 644 626 553 545 603 667
b 242 644 626 674 553 545 603 667
b 243 714 676 675 700 747 715 752
b 244 676 671 674 675 700 747 715 752
b 245 671 626 674 643 675 700 747 715 752
b 246 626 674 643 675 700 747 553 605 545 603 715 752 667
b 247 643 675 599 664 700 747 553 605 583 594 588 545 603 715 752 667
b 248 599 664 700 747 553 605 583 594 588 563 552 682 662 611 526 522 545 603 715 752 772 756 667
b 249 553 605 583 594 588 563 552 682 662 611 526 522 471 376 299 235 238 320 367 445 490 545 603 715 752 772 756 667
b 250 682 662 611 526 522 471 376 299 153 155 123 138 117 166 178 197 235 238 320 367 445 490 545 603 715 752 772 756 698 656 610 573 505 497 351 325 267 201 94 667
b 251 153 155 123 138 117 166 178 197 235 238 320 367 445 490 545 603 595 533 470 360 264 229 171 122 45 799 786 391 202 69 446 3 715 752 772 756 698 656 610 573 505 497 351 325 267 201 94 53 788 667 491
b 252 36 302 324 25 446 3
b 253 302 324 369 724 25 446 3
b 254 702 5 324 724 788 491
b 255 5 324 724 27 24 788 491
b 256 324 369 724 25 27 24 446 3 788 491
b 257 13 784 16 724 27
b 258 784 16 31 369 724 797 336 27
b 259 56 93 16 31 103
b 260 93 16 31 103 126 109
b 261 16 31 369 724 797 336 103 126 109 79 27
b 262 31 369 724 797 336 103 35 126 109 79 27
b 263 369 724 797 336 25 103 35 126 109 79 27 24 446 3 788 491
b 264 169 313 280 336 25 202 69
b 265 313 280 480 380 336 25 513 391 202 69
b 266 768 795 535 480 513 785
b 267 794 795 535 797 336 35 10
b 268 795 535 480 797 336 35 10 513 785 46
b 269 535 480 380 797 336 35 10 513 785 46
b 270 480 380 797 336 25 35 10 513 785 46 391 202 69
b 271 797 336 25 103 35 10 513 785 46 126 109 79 27 24 391 202 69 446 3 788 491
b 272 72 100 101 35 10 46 64
b 273 100 101 187 173 103 35 10 46 64
b 274 101 187 173 103 35 10 46 64 67
b 275 217 230 273 173 207 246
b 276 230 273 228 173 207 246
b 277 273 228 252 173 207 316 315 246
b 278 265 262 252 316
b 279 262 206 252 275 316
b 280 206 208 252 187 275 260 316
b 281 208 228 252 187 173 275 260 316
b 282 228 252 187 173 207 275 260 316 315 246
b 283 187 173 103 35 10 46 64 67 207 275 260 170 316 315 246
b 284 103 35 10 513 785 46 64 67 207 275 260 170 126 109 79 27 24 316 315 246 391 202 69 446 3 788 491
b 285 49 75 66 57 11 785 46
b 286 75 66 57 11 81 124 785 46 67
b 287 66 57 11 81 124 785 46 64 67
b 288 68 59 57 11 108 81
b 289 59 57 11 48 108 81
b 290 57 11 48 108 81 124 785 46 64 67
b 291 15 41 746 11 48 799 786
b 292 41 746 11 48 108 45 799 786
b 293 669 735 746 513 786 391
b 294 735 746 11 513 785 786 391
b 295 746 11 48 108 513 785 45 799 786 391
b 296 11 48 108 81 124 513 785 46 64 67 45 799 786 391
b 297 131 142 137 108 122 45
b 298 142 137 108 205 171 122 45
b 299 132 137 150 108 205
b 300 137 150 108 205 171 122 45
b 301 145 183 157 150 81 124
b 302 245 218 232 183 212 246 284
b 303 218 232 183 212 207 246 284
b 304 183 157 212 150 81 124 207 246 284
b 305 203 215 223 157 212 150 205
b 306 233 215 223 212 284 287
b 307 215 223 157 212 150 284 287 205
b 308 157 212 150 81 124 207 246 284 287 205
b 309 150 108 81 124 207 246 284 287 205 171 122 45
b 310 108 81 124 513 785 46 64 67 207 246 284 287 205 171 122 45 799 786 391
b 311 513 785 46 64 67 207 275 260 170 126 109 79 27 24 316 315 246 284 287 205 171 122 45 799 786 391 202 69 446 3 788 491
b 312 98 99 104 90 79
b 313 99 104 149 90 79
b 314 104 149 90 152 109 79
b 315 160 176 149 234 199 152
b 316 176 177 149 234 199 152
b 317 177 149 163 234 199 152 298
b 318 149 163 130 90 234 199 152 298 109 79
b 319 97 110 128 130 90 24 53 788
b 320 110 139 140 128 130 90 24 94 53 788
b 321 162 172 182 139 140 201
b 322 172 182 139 140 128 130 201
b 323 182 139 140 128 163 130 261 267 201
b 324 139 140 128 163 130 90 261 24 267 201 94 53 788
b 325 163 130 90 234 199 152 298 261 109 79 24 267 201 94 53 788
b 326 90 234 199 152 298 261 109 79 27 24 267 201 94 53 788
b 327 168 226 159 170 126
b 328 226 159 231 256 260 170 126
b 329 181 159 231 241 199 152
b 330 159 231 241 256 199 152 260 170 126 109
b 331 231 241 254 256 199 152 260 170 126 109
b 332 279 272 290 297 254 323
b 333 272 290 297 241 254 323
b 334 319 309 234 363 298
b 335 309 348 290 241 234 386 363 298
b 336 348 290 297 241 340 234 436 386 363 298
b 337 290 297 241 254 340 323 234 436 386 363 298
b 338 241 254 340 323 256 234 199 152 436 386 363 298 260 170 126 109
b 339 317 356 328 323 256 275 260 341
b 340 345 356 328 373 341
b 341 356 328 375 323 256 275 260 448 373 341
b 342 439 398 437 448
b 343 441 398 437 436 485 448
b 344 398 437 375 340 323 436 485 448
b 345 375 340 323 256 436 275 260 485 448 373 341
b 346 340 323 256 234 199 152 436 386 363 298 275 260 170 126 109 485 448 373 341
b 347 234 199 152 436 386 363 298 261 275 260 170 126 109 79 27 24 485 448 373 341 267 201 94 53 788
b 348 307 321 338 261 325 267
b 349 321 338 370 414 363 298 261 325 267
b 350 338 354 370 414 363 298 261 325 267
b 351 407 396 412 420 354 370
b 352 396 412 420 354 370 351 325
b 353 451 450 420 370 475 509
b 354 450 412 420 370 475 509 497
b 355 412 420 354 370 475 509 497 351 325
b 356 354 370 475 414 363 298 261 509 497 351 325 267
b 357 410 452 461 438 414 386 363
b 358 452 461 438 499 414 386 363
b 359 465 466 495 438 436 485
b 360 466 495 461 438 436 485
b 361 495 461 438 540 436 565 485
b 362 461 438 540 499 414 436 386 363 565 485
b 363 551 570 537 499 562 596
b 364 570 566 537 499 562 596
b 365 566 537 540 499 562 596 660 565
b 366 525 532 542 537 499 475
b 367 542 537 499 475 509 562
b 368 537 540 499 475 509 562 596 660 565
b 369 540 499 475 414 436 386 363 509 562 596 660 565 485
b 370 475 414 436 386 363 298 261 509 562 596 660 565 485 497 351 325 267
b 371 436 386 363 298 261 275 260 170 126 109 79 27 24 509 562 596 660 565 485 448 373 341 497 351 325 267 201 94 53 788
b 372 275 260 170 126 109 79 27 24 509 562 596 660 565 485 448 373 341 316 315 246 284 287 205 171 122 45 799 786 391 202 69 446 3 497 351 325 267 201 94 53 788 491
b 373 286 249 300 326 318
b 374 249 221 300 326 318 229
b 375 221 300 326 318 205 229 171
b 376 296 300 311 343 287
b 377 300 311 326 318 343 287 205 229 171
b 378 352 366 311 364 343
b 379 366 368 311 326 427 364 343
b 380 368 355 311 326 382 427 364 343
b 381 355 311 326 318 382 427 364 343
b 382 311 326 318 382 427 364 343 287 205 229 171
b 383 374 418 381 318 360 264
b 384 418 381 422 318 470 360 264
b 385 379 462 381 318 382
b 386 462 381 422 318 382 486 506
b 387 381 422 318 382 486 506 470 360 264
b 388 318 382 486 506 427 364 343 287 205 470 360 264 229 171
b 389 382 486 506 463 427 364 343 287 205 470 360 264 229 171
b 390 556 544 590 586 549 486
b 391 544 528 572 590 586 549 486 506
b 392 528 600 572 590 586 549 486 506 533 470
b 393 633 616 590 636 606 673 693
b 394 616 620 600 572 590 636 606 673 693
b 395 620 632 600 572 590 636 606 673 693 595
b 396 632 600 572 590 636 606 673 693 603 595 667
b 397 600 572 590 636 606 586 549 486 506 673 693 603 595 533 470 667
b 398 494 501 486 503 463
b 399 547 501 530 604 608 549
b 400 501 530 604 608 549 486 517 503 463
b 401 530 604 608 549 486 584 517 503 463
b 402 609 619 608 606 586
b 403 619 648 608 636 606 586 681
b 404 648 625 608 636 606 586 681 661
b 405 625 604 608 636 606 586 681 661 621
b 406 604 608 636 606 586 549 486 584 517 503 463 681 661 621
b 407 636 606 586 549 486 506 584 517 503 463 673 693 681 661 621 603 595 533 470 667
b 408 486 506 584 517 503 463 427 364 343 673 693 681 661 621 287 205 603 595 533 470 360 264 229 171 667
b 409 314 305 330 399 343 284
b 410 305 330 399 343 246 284
b 411 403 426 433 330 399 429 371
b 412 426 433 330 399 429 464 442 371
b 413 433 330 399 429 492 464 442 371
b 414 330 399 429 492 464 442 371 343 315 246 284
b 415 394 419 440 399 364 343
b 416 419 440 399 429 492 364 343
b 417 479 440 492 503 463 427
b 418 440 399 429 492 503 463 427 364 343
b 419 399 429 492 464 442 371 503 463 427 364 343 315 246 284
b 420 432 454 415 431 455
b 421 454 415 431 477 455 493 442
b 422 423 415 431 442 371
b 423 415 431 477 455 384 493 442 371 316 315
b 424 372 365 425 384 341 316
b 425 365 425 384 373 341 316
b 426 483 425 477 539 520 516 448 373
b 427 425 477 455 384 539 520 516 448 373 341 316
b 428 477 455 384 539 520 493 442 371 516 448 373 341 316 315
b 429 568 561 539 617 577
b 430 561 598 539 520 617 577
b 431 598 521 529 585 539 520 663 617 577
b 432 521 476 529 585 539 520 493 663 617 577
b 433 476 529 585 539 520 493 464 442 663 617 577
b 434 500 515 536 529 492 464
b 435 515 536 529 492 464 517 503
b 436 592 575 585 584 621
b 437 575 560 536 585 584 621
b 438 560 536 529 585 584 621
b 439 536 529 585 492 464 584 517 503 621
b 440 529 585 539 520 493 492 464 442 584 517 503 621 663 617 577
b 441 539 520 493 492 464 442 371 584 517 503 621 663 617 577 516 448 373 341 316 315
b 442 492 464 442 371 584 517 503 463 427 364 343 621 663 617 577 516 448 373 341 316 315 246 284
b 443 584 517 503 463 427 364 343 673 693 681 661 621 663 617 577 516 448 373 341 316 315 246 284 287 205 603 595 533 470 360 264 229 171 667
b 444 550 548 567 577 516 448
b 445 548 567 555 576 577 516 485 448
b 446 628 581 582 576 647 660
b 447 574 581 582 555 565
b 448 581 582 555 576 647 660 565
b 449 555 576 647 577 516 660 565 485 448
b 450 576 678 647 577 516 660 565 485 448
b 451 652 683 687 678 663 617 577
b 452 683 687 694 695 678 663 617 577
b 453 687 694 695 678 692 663 617 577
b 454 677 689 709 678 647 701
b 455 689 709 694 678 647 701
b 456 717 709 694 695 741 720 729
b 457 709 694 695 678 647 741 720 729 701
b 458 694 695 678 647 741 720 692 729 701 663 617 577
b 459 678 647 741 720 692 729 701 663 617 577 516 660 565 485 448
b 460 762 753 741 766 729
b 461 753 726 763 732 741 766 729
b 462 726 705 763 732 741 720 692 766 729
b 463 705 763 732 711 741 720 692 766 729 621 663
b 464 703 734 711 742 693 681
b 465 739 751 755 734 732 711
b 466 751 755 734 763 732 711
b 467 755 734 763 732 711 769 759
b 468 734 763 732 711 769 759 742 693 681
b 469 763 732 711 769 759 742 741 720 692 778 766 729 693 681 621 663
b 470 711 769 759 742 741 720 692 778 766 729 693 681 661 621 663
b 471 733 745 764 744 716 742 673 693
b 472 745 764 744 716 759 742 673 693
b 473 774 764 769 759 775 778
b 474 764 748 744 716 769 759 742 775 778 673 693
b 475 760 754 775 752 772
b 476 754 718 748 775 715 752 772
b 477 718 748 744 716 775 715 752 772 667
b 478 748 744 716 769 759 742 775 778 673 693 715 752 772 667
b 479 769 759 742 741 720 692 775 778 766 729 673 693 681 661 621 663 715 752 772 667
b 480 741 720 692 775 778 766 729 701 673 693 681 661 621 663 617 577 516 660 565 485 448 715 752 772 667
b 481 704 719 710 688 701 660
b 482 719 710 736 688 729 701 660
b 483 737 722 736 712 771 761
b 484 722 710 736 712 696 771 761
b 485 710 736 712 696 688 771 761 729 701 660
b 486 699 706 712 690 685
b 487 706 712 690 740 685
b 488 712 690 696 688 771 761 740 685 729 701 660
b 489 686 666 650 690 696 688
b 490 666 650 690 696 688 596 660
b 491 531 593 597 509 505 497
b 492 593 597 618 627 509 573 505 497
b 493 653 597 618 650 690 685
b 494 597 618 650 690 685 627 509 562 573 505 497
b 495 650 690 696 688 685 627 509 562 596 660 573 505 497
b 496 690 696 688 771 761 740 685 627 729 701 509 562 596 660 573 505 497
b 497 651 707 685 627 656 610
b 498 707 725 708 685 627 698 656 610
b 499 731 727 728 725 750 758
b 500 723 727 728 725 708
b 501 727 728 725 708 750 758 756 698
b 502 725 708 750 758 740 685 627 756 698 656 610
b 503 749 767 750 761 740
b 504 765 767 776 771 761
b 505 767 777 776 750 758 771 761 740
b 506 777 776 750 758 771 761 740 775 778 772 756
b 507 770 773 776 771 766 729
b 508 773 776 771 778 766 729
b 509 776 750 758 771 761 740 775 778 766 729 772 756
b 510 750 758 771 761 740 685 627 775 778 766 729 772 756 698 656 610
b 511 771 761 740 685 627 775 778 766 729 701 509 562 596 660 772 756 698 656 610 573 505 497
b 512 775 778 766 729 701 673 693 681 661 621 663 617 577 516 509 562 596 660 565 485 448 715 752 772 756 698 656 610 573 505 497 667
b 513 673 693 681 661 621 663 617 577 516 509 562 596 660 565 485 448 373 341 316 315 246 284 287 205 603 595 533 470 360 264 229 171 715 752 772 756 698 656 610 573 505 497 667
b 514 509 562 596 660 565 485 448 373 341 316 315 246 284 287 205 603 595 533 470 360 264 229 171 122 45 799 786 391 202 69 446 3 715 752 772 756 698 656 610 573 505 497 351 325 267 201 94 53 788 667 491
1 2
2 3
3 7
7 16
16 30
30 65
65 130
130 251
251 514
514 372
514 513
251 250
513 443
250 196
513 512
130 129
372 311
372 371
311 284
196 173
443 408
129 128
371 347
512 480
250 249
65 64
129 93
443 442
249 248
284 271
512 511
128 127
480 479
173 172
442 441
311 310
173 151
408 407
128 110
347 346
249 221
64 52
172 162
371 370
30 29
110 109
196 195
347 326
93 92
248 247
271 263
511 496
511 510
479 470
346 338
221 209
52 51
326 325
470 469
284 283
408 389
480 459
248 235
441 440
151 141
151 150
407 397
389 388
93 75
442 419
127 118
127 126
310 296
407 406
29 22
195 186
496 495
16 15
271 270
479 478
441 428
310 309
162 161
162 156
161 160
370 369
92 83
247 246
510 509
209 208
51 43
51 50
440 433
419 414
428 427
397 396
478 474
509 506
141 140
64 63
172 171
346 345
221 220
370 356
109 104
195 194
92 91
263 262
496 488
262 261
325 324
469 463
459 458
235 234
296 295
296 290
186 185
495 494
270 269
43 42
433 432
396 395
397 392
63 62
171 170
150 149
388 382
91 90
75 70
324 320
126 125
118 117
185 184
269 268
110 100
52 35
29 28
109 108
108 107
263 256
510 502
338 331
338 337
331 330
337 336
209 201
325 318
235 227
126 121
406 405
22 21
406 401
22 19
186 177
15 14
270 265
478 477
428 423
309 308
156 154
369 362
369 368
83 82
246 245
208 204
50 49
140 139
345 341
220 219
356 350
194 192
488 485
324 323
458 457
234 232
290 287
432 431
395 394
62 61
61 59
382 377
125 123
75 74
440 439
463 462
107 105
150 144
118 113
201 200
227 225
419 418
21 20
401 400
177 176
308 304
82 81
219 218
350 349
170 169
287 286
59 58
144 143
113 112
169 168
247 239
469 468
283 274
274 273
283 282
459 450
450 449
388 387
160 159
83 78
208 207
43 38
7 6
50 46
414 413
427 426
474 472
506 505
220 215
356 355
104 103
261 258
458 453
295 292
494 492
392 391
62 57
149 148
382 381
90 88
70 69
320 319
117 116
184 180
100 96
100 99
35 34
28 24
502 498
336 335
121 120
405 404
19 18
14 13
154 153
368 365
245 244
204 203
139 135
341 339
192 189
232 231
225 223
218 217
112 111
282 277
282 281
184 183
207 206
46 45
413 412
472 471
453 452
57 55
381 380
88 87
34 33
24 23
189 188
231 230
223 222
206 205
55 54
15 9
309 300
387 386
156 155
160 157
246 242
495 490
345 344
104 101
295 294
42 39
268 267
35 32
28 27
256 255
256 253
502 501
330 328
201 198
318 317
265 264
477 476
423 421
308 307
362 358
362 361
49 48
192 191
485 484
485 482
323 322
457 456
394 393
377 375
123 122
74 72
72 71
462 461
200 199
418 416
286 285
143 142
239 237
468 467
168 167
273 272
449 445
387 384
78 77
78 76
6 5
215 214
355 354
355 352
103 102
292 291
69 68
180 179
96 95
404 403
153 152
244 243
135 134
281 280
183 182
45 44
412 411
452 451
380 379
87 86
300 298
230 229
242 241
27 26
307 305
358 357
191 190
439 435
214 213
95 94
134 133
141 132
509 508
414 410
427 425
425 424
474 473
140 138
171 164
194 193
261 260
234 233
290 289
494 493
42 41
149 145
125 124
268 266
107 106
337 333
330 329
318 314
368 367
139 137
137 136
457 455
431 430
74 73
439 438
418 417
400 399
176 175
176 174
304 303
303 302
81 80
81 79
349 348
468 464
449 448
159 158
38 36
38 37
215 211
492 491
391 390
148 146
148 147
116 115
99 98
498 497
120 119
13 10
13 12
365 364
203 202
217 216
277 276
168 166
9 8
188 187
490 489
344 343
294 293
32 31
255 254
253 252
501 499
198 197
317 316
307 306
361 360
484 483
482 481
322 321
375 374
416 415
237 236
467 466
445 444
384 383
5 4
354 353
352 351
68 67
179 178
213 212
298 297
508 507
410 409
132 131
26 25
435 434
164 163
289 288
304 301
333 332
455 454
438 437
448 446
211 210
98 97
364 363
276 275
316 315
360 359
466 465
229 228
63 53
505 504
488 487
170 165
90 85
90 89
227 226
423 422
341 340
48 47
377 376
225 224
400 398
505 503
258 257
57 56
335 334
18 17
300 299
386 385
501 500
328 327
476 475
421 420
461 460
403 402
280 279
182 181
379 378
241 240
260 259
41 40
367 366
314 313
430 429
448 447
12 11
313 312
85 84
374 373
487 486
437 436
239 238
61 60
344 342
68 66
115 114
279 278
